*SENSE:Minimize
NAME          LP_Problem
ROWS
 N  Objective
 E  Constraint_1
 E  Constraint_2
 E  Constraint_3
COLUMNS
    x1        Constraint_1   5.000000000000e+00
    x1        Constraint_2   2.000000000000e+00
    x1        Constraint_3   1.000000000000e+00
    x1        Objective  -2.000000000000e+00
    x2        Constraint_1   3.000000000000e+00
    x2        Constraint_2   2.000000000000e+00
    x2        Constraint_3   1.000000000000e+00
    x2        Objective  -3.000000000000e+00
    x3        Constraint_1   2.000000000000e+00
    x3        Constraint_2   1.000000000000e+00
    x3        Constraint_3   2.000000000000e+00
    x3        Objective  -2.000000000000e+00
    x4        Constraint_1   1.000000000000e+00
    x5        Constraint_2   1.000000000000e+00
    x6        Constraint_3   1.000000000000e+00
RHS
    RHS       Constraint_1   4.000000000000e+00
    RHS       Constraint_2   2.000000000000e+00
    RHS       Constraint_3   3.000000000000e+00
BOUNDS
ENDATA
